p cnf 30 30
13 7 10 0
1 -12 -25 0
-9 -15 2 0
-29 15 30 0
-10 -3 -29 0
-11 27 13 0
-17 16 21 0
13 -25 -29 0
-17 16 -13 0
6 28 20 0
6 -4 25 0
-23 -6 -2 0
17 26 25 0
-4 -20 -7 0
9 27 6 0
23 -7 -18 0
8 -27 20 0
7 30 10 0
18 23 -7 0
-6 -16 -12 0
29 -25 -8 0
5 -4 -11 0
-10 -18 21 0
13 -17 15 0
24 -9 -10 0
18 23 -28 0
10 13 30 0
4 27 16 0
10 -28 -12 0
16 -11 1 0
